(declare-const x Bool)
(declare-const y Bool) 
(declare-const z Bool)
(declare-const t Bool)
(declare-const a Bool)
(declare-const b Bool)
(assert (and
   (or y t a)
   (or (and z y) (and x a) (and b t))
   (or (not a) (and (not b) y) (and (not z) (not t)))
   (or (not y) (not z) (not b))
   (or (and y a) (and b x) (and z t))
   (or x (and a b) (not y))
   (or (and x y) (and z t) (and a b))
   )
)
(check-sat)
(get-model)
(exit)
